p cnf 70 365
-13 -14 0
13 14 0
2 -13 0
3 -14 0
5 -13 0
6 -14 0
8 -13 0
9 -14 0
11 -13 0
12 -14 0
-15 -16 0
-15 -17 0
-15 -18 0
-15 -19 0
-15 -20 0
-15 -21 0
-15 -22 0
-16 -17 0
-16 -18 0
-16 -19 0
-16 -20 0
-16 -21 0
-16 -22 0
-17 -18 0
-17 -19 0
-17 -20 0
-17 -21 0
-17 -22 0
-18 -19 0
-18 -20 0
-18 -21 0
-18 -22 0
-19 -20 0
-19 -21 0
-19 -22 0
-20 -21 0
-20 -22 0
-21 -22 0
15 16 17 18 19 20 21 22 0
-23 -24 0
-23 -25 0
-23 -26 0
-23 -27 0
-23 -28 0
-23 -29 0
-23 -30 0
-24 -25 0
-24 -26 0
-24 -27 0
-24 -28 0
-24 -29 0
-24 -30 0
-25 -26 0
-25 -27 0
-25 -28 0
-25 -29 0
-25 -30 0
-26 -27 0
-26 -28 0
-26 -29 0
-26 -30 0
-27 -28 0
-27 -29 0
-27 -30 0
-28 -29 0
-28 -30 0
-29 -30 0
23 24 25 26 27 28 29 30 0
-31 -32 0
-31 -33 0
-31 -34 0
-31 -35 0
-31 -36 0
-31 -37 0
-31 -38 0
-32 -33 0
-32 -34 0
-32 -35 0
-32 -36 0
-32 -37 0
-32 -38 0
-33 -34 0
-33 -35 0
-33 -36 0
-33 -37 0
-33 -38 0
-34 -35 0
-34 -36 0
-34 -37 0
-34 -38 0
-35 -36 0
-35 -37 0
-35 -38 0
-36 -37 0
-36 -38 0
-37 -38 0
31 32 33 34 35 36 37 38 0
-39 -40 0
-39 -41 0
-39 -42 0
-39 -43 0
-39 -44 0
-39 -45 0
-39 -46 0
-40 -41 0
-40 -42 0
-40 -43 0
-40 -44 0
-40 -45 0
-40 -46 0
-41 -42 0
-41 -43 0
-41 -44 0
-41 -45 0
-41 -46 0
-42 -43 0
-42 -44 0
-42 -45 0
-42 -46 0
-43 -44 0
-43 -45 0
-43 -46 0
-44 -45 0
-44 -46 0
-45 -46 0
39 40 41 42 43 44 45 46 0
-47 -48 0
-47 -49 0
-47 -50 0
-47 -51 0
-47 -52 0
-47 -53 0
-47 -54 0
-48 -49 0
-48 -50 0
-48 -51 0
-48 -52 0
-48 -53 0
-48 -54 0
-49 -50 0
-49 -51 0
-49 -52 0
-49 -53 0
-49 -54 0
-50 -51 0
-50 -52 0
-50 -53 0
-50 -54 0
-51 -52 0
-51 -53 0
-51 -54 0
-52 -53 0
-52 -54 0
-53 -54 0
47 48 49 50 51 52 53 54 0
-55 -56 0
-55 -57 0
-55 -58 0
-55 -59 0
-55 -60 0
-55 -61 0
-55 -62 0
-56 -57 0
-56 -58 0
-56 -59 0
-56 -60 0
-56 -61 0
-56 -62 0
-57 -58 0
-57 -59 0
-57 -60 0
-57 -61 0
-57 -62 0
-58 -59 0
-58 -60 0
-58 -61 0
-58 -62 0
-59 -60 0
-59 -61 0
-59 -62 0
-60 -61 0
-60 -62 0
-61 -62 0
55 56 57 58 59 60 61 62 0
-63 -64 0
-63 -65 0
-63 -66 0
-63 -67 0
-63 -68 0
-63 -69 0
-63 -70 0
-64 -65 0
-64 -66 0
-64 -67 0
-64 -68 0
-64 -69 0
-64 -70 0
-65 -66 0
-65 -67 0
-65 -68 0
-65 -69 0
-65 -70 0
-66 -67 0
-66 -68 0
-66 -69 0
-66 -70 0
-67 -68 0
-67 -69 0
-67 -70 0
-68 -69 0
-68 -70 0
-69 -70 0
63 64 65 66 67 68 69 70 0
-15 -23 0
-16 -24 0
-17 -25 0
-18 -26 0
-19 -27 0
-20 -28 0
-21 -29 0
-22 -30 0
-15 -31 0
-16 -32 0
-17 -33 0
-18 -34 0
-19 -35 0
-20 -36 0
-21 -37 0
-22 -38 0
-1 -15 -39 0
-1 -16 -40 0
-1 -17 -41 0
-1 -18 -42 0
-1 -19 -43 0
-1 -20 -44 0
-1 -21 -45 0
-1 -22 -46 0
-2 -15 -47 0
-2 -16 -48 0
-2 -17 -49 0
-2 -18 -50 0
-2 -19 -51 0
-2 -20 -52 0
-2 -21 -53 0
-2 -22 -54 0
-3 -15 -55 0
-3 -16 -56 0
-3 -17 -57 0
-3 -18 -58 0
-3 -19 -59 0
-3 -20 -60 0
-3 -21 -61 0
-3 -22 -62 0
-15 -63 0
-16 -64 0
-17 -65 0
-18 -66 0
-19 -67 0
-20 -68 0
-21 -69 0
-22 -70 0
-23 -31 0
-24 -32 0
-25 -33 0
-26 -34 0
-27 -35 0
-28 -36 0
-29 -37 0
-30 -38 0
-4 -23 -39 0
-4 -24 -40 0
-4 -25 -41 0
-4 -26 -42 0
-4 -27 -43 0
-4 -28 -44 0
-4 -29 -45 0
-4 -30 -46 0
-5 -23 -47 0
-5 -24 -48 0
-5 -25 -49 0
-5 -26 -50 0
-5 -27 -51 0
-5 -28 -52 0
-5 -29 -53 0
-5 -30 -54 0
-6 -23 -55 0
-6 -24 -56 0
-6 -25 -57 0
-6 -26 -58 0
-6 -27 -59 0
-6 -28 -60 0
-6 -29 -61 0
-6 -30 -62 0
-23 -63 0
-24 -64 0
-25 -65 0
-26 -66 0
-27 -67 0
-28 -68 0
-29 -69 0
-30 -70 0
-7 -31 -39 0
-7 -32 -40 0
-7 -33 -41 0
-7 -34 -42 0
-7 -35 -43 0
-7 -36 -44 0
-7 -37 -45 0
-7 -38 -46 0
-8 -31 -47 0
-8 -32 -48 0
-8 -33 -49 0
-8 -34 -50 0
-8 -35 -51 0
-8 -36 -52 0
-8 -37 -53 0
-8 -38 -54 0
-9 -31 -55 0
-9 -32 -56 0
-9 -33 -57 0
-9 -34 -58 0
-9 -35 -59 0
-9 -36 -60 0
-9 -37 -61 0
-9 -38 -62 0
-31 -63 0
-32 -64 0
-33 -65 0
-34 -66 0
-35 -67 0
-36 -68 0
-37 -69 0
-38 -70 0
-39 -55 0
-40 -56 0
-41 -57 0
-42 -58 0
-43 -59 0
-44 -60 0
-45 -61 0
-46 -62 0
-10 -39 -63 0
-10 -40 -64 0
-10 -41 -65 0
-10 -42 -66 0
-10 -43 -67 0
-10 -44 -68 0
-10 -45 -69 0
-10 -46 -70 0
-11 -47 -63 0
-11 -48 -64 0
-11 -49 -65 0
-11 -50 -66 0
-11 -51 -67 0
-11 -52 -68 0
-11 -53 -69 0
-11 -54 -70 0
-12 -55 -63 0
-12 -56 -64 0
-12 -57 -65 0
-12 -58 -66 0
-12 -59 -67 0
-12 -60 -68 0
-12 -61 -69 0
-12 -62 -70 0
